100 10
486 88
628 216
764 171
410 465
751 296
133 782
364 192
95 204
511 624
241 445
493 61
626 780
314 713
82 439
863 561
503 410
563 205
598 482
501 619
290 904
832 62
513 929
362 656
342 594
813 814
340 624
286 392
773 553
446 719
481 515
238 746
870 710
422 418
578 293
113 743
476 681
248 685
463 515
64 465
348 144
727 502
171 523
131 240
299 327
359 684
453 435
772 839
681 226
192 170
726 321
347 526
638 671
418 662
285 716
511 686
404 291
637 135
875 316
567 568
131 418
310 444
554 245
39 114
253 538
663 300
426 612
710 259
690 629
477 305
725 607
277 631
512 638
236 624
443 438
159 103
172 196
187 131
251 121
302 789
245 124
456 482
538 519
286 953
110 616
598 396
332 112
463 718
627 536
659 665
204 110
800 442
385 285
687 273
230 931
498 478
783 506
587 681
508 201
661 184
310 358
